experiment/data/hgs-res/Vrp-Set-X-n247/Vrp-Set-X-n247-hgs/0.hgs1.vrp
NAME : 0
COMMENT : CVRP Instance
TYPE : CVRP
DIMENSION : 247
EDGE_WEIGHT_TYPE : EUC_2D
CAPACITY : 134
NODE_COORD_SECTION
1	500.0	500.0
2	612.0	199.0
3	864.0	279.0
4	746.0	395.0
5	738.0	519.0
6	797.0	59.0
7	867.0	206.0
8	846.0	399.0
9	654.0	172.0
10	874.0	275.0
11	675.0	479.0
12	780.0	372.0
13	692.0	446.0
14	541.0	183.0
15	747.0	432.0
16	845.0	403.0
17	787.0	317.0
18	472.0	325.0
19	682.0	246.0
20	779.0	308.0
21	815.0	316.0
22	690.0	306.0
23	923.0	403.0
24	643.0	526.0
25	849.0	293.0
26	789.0	424.0
27	766.0	443.0
28	833.0	421.0
29	999.0	259.0
30	949.0	458.0
31	675.0	431.0
32	930.0	480.0
33	809.0	439.0
34	677.0	173.0
35	479.0	247.0
36	849.0	285.0
37	711.0	358.0
38	794.0	366.0
39	878.0	230.0
40	815.0	259.0
41	739.0	570.0
42	564.0	141.0
43	845.0	320.0
44	801.0	473.0
45	769.0	345.0
46	528.0	256.0
47	700.0	404.0
48	851.0	369.0
49	925.0	215.0
50	608.0	654.0
51	878.0	358.0
52	562.0	80.0
53	577.0	358.0
54	418.0	269.0
55	766.0	533.0
56	709.0	585.0
57	933.0	280.0
58	671.0	522.0
59	725.0	496.0
60	863.0	250.0
61	864.0	328.0
62	663.0	460.0
63	848.0	251.0
64	601.0	17.0
65	559.0	708.0
66	689.0	490.0
67	745.0	448.0
68	746.0	345.0
69	776.0	427.0
70	925.0	251.0
71	677.0	120.0
72	783.0	292.0
73	484.0	715.0
74	810.0	261.0
75	680.0	173.0
76	895.0	273.0
77	785.0	253.0
78	886.0	125.0
79	916.0	247.0
80	930.0	364.0
81	584.0	185.0
82	896.0	334.0
83	874.0	524.0
84	723.0	145.0
85	440.0	130.0
86	684.0	326.0
87	737.0	309.0
88	554.0	164.0
89	859.0	254.0
90	981.0	334.0
91	717.0	258.0
92	855.0	321.0
93	623.0	443.0
94	685.0	162.0
95	686.0	463.0
96	733.0	431.0
97	664.0	616.0
98	586.0	486.0
99	523.0	196.0
100	712.0	541.0
101	759.0	432.0
102	658.0	583.0
103	860.0	312.0
104	762.0	359.0
105	818.0	236.0
106	498.0	208.0
107	504.0	64.0
108	842.0	221.0
109	895.0	461.0
110	691.0	136.0
111	870.0	277.0
112	644.0	438.0
113	556.0	305.0
114	747.0	522.0
115	728.0	123.0
116	646.0	445.0
117	867.0	380.0
118	578.0	286.0
119	669.0	372.0
120	663.0	507.0
121	691.0	172.0
122	384.0	100.0
123	791.0	379.0
124	650.0	277.0
125	725.0	609.0
126	897.0	279.0
127	758.0	306.0
128	971.0	92.0
129	641.0	183.0
130	904.0	291.0
131	825.0	374.0
132	405.0	305.0
133	786.0	431.0
134	720.0	677.0
135	563.0	245.0
136	758.0	442.0
137	750.0	530.0
138	677.0	72.0
139	567.0	564.0
140	890.0	268.0
141	833.0	289.0
142	637.0	408.0
143	845.0	276.0
144	809.0	347.0
145	818.0	88.0
146	678.0	259.0
147	853.0	219.0
148	448.0	734.0
149	493.0	509.0
150	581.0	187.0
151	789.0	397.0
152	537.0	240.0
153	714.0	339.0
154	777.0	371.0
155	683.0	378.0
156	788.0	597.0
157	499.0	301.0
158	835.0	370.0
159	598.0	221.0
160	798.0	509.0
161	857.0	214.0
162	463.0	400.0
163	844.0	400.0
164	860.0	267.0
165	662.0	184.0
166	638.0	185.0
167	814.0	529.0
168	781.0	293.0
169	688.0	598.0
170	866.0	305.0
171	786.0	343.0
172	819.0	476.0
173	789.0	243.0
174	666.0	41.0
175	715.0	530.0
176	710.0	93.0
177	992.0	531.0
178	753.0	534.0
179	566.0	216.0
180	664.0	76.0
181	934.0	403.0
182	590.0	211.0
183	646.0	141.0
184	719.0	302.0
185	919.0	234.0
186	597.0	150.0
187	761.0	360.0
188	761.0	367.0
189	684.0	61.0
190	815.0	469.0
191	813.0	282.0
192	775.0	536.0
193	960.0	722.0
194	805.0	178.0
195	686.0	148.0
196	718.0	138.0
197	870.0	167.0
198	713.0	265.0
199	713.0	242.0
200	855.0	296.0
201	535.0	169.0
202	900.0	254.0
203	877.0	365.0
204	872.0	218.0
205	957.0	620.0
206	680.0	535.0
207	701.0	182.0
208	687.0	498.0
209	828.0	511.0
210	741.0	557.0
211	720.0	61.0
212	764.0	452.0
213	500.0	143.0
214	916.0	505.0
215	803.0	183.0
216	720.0	452.0
217	852.0	349.0
218	855.0	297.0
219	755.0	492.0
220	748.0	411.0
221	829.0	123.0
222	752.0	217.0
223	949.0	556.0
224	853.0	596.0
225	764.0	576.0
226	651.0	282.0
227	747.0	256.0
228	680.0	49.0
229	839.0	364.0
230	839.0	66.0
231	846.0	29.0
232	604.0	597.0
233	762.0	520.0
234	839.0	244.0
235	896.0	131.0
236	838.0	735.0
237	586.0	465.0
238	582.0	216.0
239	681.0	187.0
240	756.0	182.0
241	924.0	98.0
242	731.0	625.0
243	428.0	684.0
244	725.0	408.0
245	792.0	337.0
246	677.0	142.0
247	797.0	262.0
DEMAND_SECTION
1	0
2	99
3	72
4	87
5	77
6	78
7	76
8	74
9	78
10	92
11	96
12	75
13	96
14	72
15	99
16	63
17	93
18	64
19	68
20	82
21	53
22	91
23	74
24	67
25	65
26	85
27	52
28	77
29	91
30	58
31	73
32	62
33	94
34	84
35	74
36	95
37	62
38	62
39	78
40	89
41	87
42	54
43	73
44	81
45	84
46	51
47	84
48	100
49	69
50	52
51	99
52	95
53	85
54	89
55	96
56	60
57	75
58	97
59	65
60	57
61	57
62	97
63	86
64	97
65	52
66	66
67	100
68	53
69	54
70	3
71	8
72	1
73	3
74	2
75	8
76	6
77	9
78	8
79	8
80	5
81	6
82	4
83	7
84	9
85	1
86	7
87	1
88	6
89	7
90	6
91	10
92	3
93	6
94	5
95	1
96	10
97	5
98	2
99	2
100	6
101	4
102	10
103	3
104	4
105	3
106	2
107	1
108	6
109	9
110	10
111	6
112	10
113	6
114	6
115	7
116	6
117	6
118	9
119	3
120	8
121	10
122	8
123	3
124	1
125	4
126	1
127	6
128	7
129	4
130	5
131	4
132	5
133	3
134	4
135	3
136	3
137	2
138	5
139	7
140	10
141	8
142	8
143	3
144	6
145	7
146	8
147	3
148	6
149	3
150	5
151	6
152	1
153	7
154	9
155	5
156	8
157	7
158	10
159	8
160	2
161	1
162	5
163	7
164	3
165	1
166	10
167	3
168	8
169	1
170	2
171	8
172	9
173	9
174	5
175	2
176	8
177	2
178	3
179	7
180	9
181	5
182	8
183	5
184	6
185	1
186	2
187	8
188	7
189	9
190	4
191	7
192	8
193	7
194	4
195	5
196	10
197	1
198	9
199	3
200	2
201	3
202	7
203	6
204	7
205	4
206	4
207	4
208	7
209	3
210	4
211	2
212	9
213	5
214	1
215	1
216	7
217	4
218	8
219	5
220	1
221	1
222	5
223	6
224	8
225	6
226	5
227	10
228	10
229	4
230	4
231	8
232	7
233	1
234	3
235	5
236	5
237	7
238	7
239	4
240	6
241	3
242	3
243	10
244	8
245	5
246	6
247	6
DEPOT_SECTION
1
-1
EOF
