experiment/data/hgs-res/Vrp-Set-X-n247/Vrp-Set-X-n247-hgs/0.hgs1.tour
Route #1: 161 53 131
Route #2: 156 34 45
Route #3: 105 212 84 121 106 51 185 80 149 178
Route #4: 151 13 87 41
Route #5: 158 1 181 237 134 112
Route #6: 164 70 175 227 173 63 200 98
Route #7: 17 18 123
Route #8: 117 165 128 33 74 93 120 238
Route #9: 52
Route #10: 225 206 83 195 114 109 194 245 8
Route #11: 182 179 137 188 210 5 230 229 144 220 239
Route #12: 21 85
Route #13: 126 39 73 246 226 90 197
Route #14: 183 76 172 104 233 62 190 71 167 86
Route #15: 198 214 193 196 77 234 240 127 28 89 79
Route #16: 59 6 160
Route #17: 88 201 78 69 184 38 203 146 107 221 145
Route #18: 118 152 19 154 141
Route #19: 16
Route #20: 24 48
Route #21: 2 36
Route #22: 140 35 199 217 102 91 244 170
Route #23: 142 163 110 9 139 75 125 129 81 216
Route #24: 44 103 186 187
Route #25: 20 42 143
Route #26: 92 11 67
Route #27: 60 56 169
Route #28: 46
Route #29: 3 111
Route #30: 236 30
Route #31: 15 37 153
Route #32: 115 130 157 47 150 219
Route #33: 243 122 228 50 202 116 162
Route #34: 14 95
Route #35: 12
Route #36: 132 27 68
Route #37: 61
Route #38: 215 135 25 100
Route #39: 66 94
Route #40: 43 26
Route #41: 10
Route #42: 207 218 171 189 32 211 97
Route #43: 58 65
Route #44: 55 7
Route #45: 159 208 29 31 213 223
Route #46: 119 4
Route #47: 57
Route #48: 174 113 136 177 54 191 209 99 205
Route #49: 232 166 82 108 22 180 176 222 204 192 235 133 96
Route #50: 23
Route #51: 40 224 155 241 124 168 101 138
Route #52: 148 242 147 72 64 49 231
Cost 37434.1
